50
137
141
121
132
130
122
120
120
127
123
139
126
130
128
142
127
137
140
123
142
139
127
122
125
128
142
141
140
117
124
126
129
117
124
136
118
117
133
141
117
127
125
120
141
120
120
140
132
129
117
